Route #1: 20 29 23 24 25 26 30 21 22 28 27 42 43 44 46 53 45 52 48 47 50 51 70 49 41 55 54
Route #2: 5 8 7 9 4 3 10 6 71 12 16 17 13 2 19 15 1 18 35 36 31
Route #3: 32 34 60 61 58 59 63 64 62 65 66 67 69 37 38 40 68 39 57 56
Route #4: 11 14
Route #5: 33
Cost 252